num_people = 10;
num_slots = 10;             % 8 to 18 in 1 h intervals
meeting_length = 1;         % 1 hour meeting

busy_times = [
  {1, 2,    4, 5,    7, 8,     10},    
  {1,    3,    5,    7, 8,     10},    
  {   2, 3, 4,       7           },    
  {1,    3, 4, 5,       8,     10},    
  {1, 2, 3,          7,        10},    
  {1, 2,    4, 5,       8,     10},    
  {1, 2, 3,    5,    7,        10},    
  {1, 2, 3, 4, 5,    7, 8,     10},    
  {         4, 5,    7,        10},    
  {1, 2, 3, 4, 5,                },    
];
